w = 60;
n = 73;
measures = [|33, 14,
|25, 15,
|16, 18,
|21, 12,
|12, 18,
|34, 6,
|14, 13,
|25, 7,
|9, 18,
|12, 13,
|23, 6,
|10, 12,
|10, 12,
|16, 7,
|12, 9,
|21, 5,
|14, 7,
|6, 15,
|5, 18,
|10, 9,
|14, 6,
|14, 6,
|16, 5,
|16, 5,
|6, 13,
|11, 7,
|8, 9,
|14, 5,
|13, 5,
|21, 3,
|6, 9,
|6, 9,
|3, 18,
|16, 3,
|12, 4,
|6, 7,
|6, 7,
|4, 10,
|13, 3,
|6, 6,
|6, 6,
|12, 3,
|12, 3,
|5, 7,
|7, 5,
|5, 7,
|6, 5,
|6, 5,
|3, 9,
|3, 9,
|5, 5,
|2, 12,
|8, 3,
|11, 2,
|7, 3,
|3, 7,
|3, 7,
|2, 10,
|2, 9,
|2, 9,
|4, 4,
|3, 5,
|4, 3,
|6, 2,
|6, 2,
|3, 2,
|3, 2,
|6, 1,
|3, 2,
|2, 3,
|4, 1,
|3, 1,
|2, 1,
|];
initial_x = [0, 33, 0, 16, 37, 0, 34, 0, 25, 34, 0, 23, 33, 43, 0, 12, 33, 47, 53, 0, 10, 24, 38, 0, 16, 22, 33, 41, 0, 13, 34, 40, 46, 0, 16, 28, 34, 40, 44, 0, 6, 12, 24, 36, 41, 48, 53, 0, 6, 9, 12, 17, 19, 27, 38, 45, 48, 51, 53, 55, 0, 4, 7, 11, 17, 23, 26, 29, 35, 38, 40, 44, 47];
initial_y = [0, 0, 15, 15, 15, 33, 33, 46, 46, 46, 64, 64, 64, 64, 76, 76, 76, 76, 76, 94, 94, 94, 94, 103, 103, 103, 103, 103, 116, 116, 116, 116, 116, 134, 134, 134, 134, 134, 134, 144, 144, 144, 144, 144, 144, 144, 144, 151, 151, 151, 151, 151, 151, 151, 151, 151, 151, 151, 151, 151, 163, 163, 163, 163, 163, 163, 163, 163, 163, 163, 163, 163, 163];